benchmark/results/graph__15-1000-0.10-04_8/graph__15-1000-0.10-04_8_QuintonOs_Benders_primal_sub.lp
\ This file has been generated by DOcplex
\ ENCODING=ISO-8859-1
\Problem name: Quinton Bounded Benders_primal_sub

Maximize
 obj: tau
Subject To
 c1: tau <= 0.001663893511
 c2: y_a0_proc_0 + y_a0_proc_3 - tau = 0
 c3: y_a0_proc_0 <= 0
 c4: y_a0_proc_3 <= 1
 c5: tau <= 0.001398601399
 c6: y_a1_proc_0 + y_a1_proc_1 + y_a1_proc_2 + y_a1_proc_3 - tau = 0
 c7: y_a1_proc_0 <= 0
 c8: y_a1_proc_1 <= 0
 c9: y_a1_proc_2 <= 1
 c10: y_a1_proc_3 <= 0
 c11: tau <= 0.001089324619
 c12: y_a2_proc_0 + y_a2_proc_1 + y_a2_proc_2 + y_a2_proc_3 - tau = 0
 c13: y_a2_proc_0 <= 0
 c14: y_a2_proc_1 <= 1
 c15: y_a2_proc_2 <= 0
 c16: y_a2_proc_3 <= 0
 c17: tau <= 0.000827814570
 c18: y_a3_proc_1 + y_a3_proc_2 + y_a3_proc_3 - tau = 0
 c19: y_a3_proc_1 <= 1
 c20: y_a3_proc_2 <= 0
 c21: y_a3_proc_3 <= 0
 c22: tau <= 0.003236245955
 c23: y_a4_proc_0 + y_a4_proc_1 + y_a4_proc_2 + y_a4_proc_3 - tau = 0
 c24: y_a4_proc_0 <= 0
 c25: y_a4_proc_1 <= 1
 c26: y_a4_proc_2 <= 0
 c27: y_a4_proc_3 <= 0
 c28: tau <= 0.000963391137
 c29: y_a5_proc_0 + y_a5_proc_1 + y_a5_proc_2 + y_a5_proc_3 - tau = 0
 c30: y_a5_proc_0 <= 0
 c31: y_a5_proc_1 <= 0
 c32: y_a5_proc_2 <= 0
 c33: y_a5_proc_3 <= 1
 c34: tau <= 0.001005025126
 c35: y_a6_proc_0 + y_a6_proc_1 + y_a6_proc_2 - tau = 0
 c36: y_a6_proc_0 <= 1
 c37: y_a6_proc_1 <= 0
 c38: y_a6_proc_2 <= 0
 c39: tau <= 0.001052631579
 c40: y_a7_proc_0 + y_a7_proc_1 + y_a7_proc_2 + y_a7_proc_3 - tau = 0
 c41: y_a7_proc_0 <= 0
 c42: y_a7_proc_1 <= 0
 c43: y_a7_proc_2 <= 1
 c44: y_a7_proc_3 <= 0
 c45: tau <= 0.001848428835
 c46: y_a8_proc_0 + y_a8_proc_1 + y_a8_proc_2 - tau = 0
 c47: y_a8_proc_0 <= 0
 c48: y_a8_proc_1 <= 0
 c49: y_a8_proc_2 <= 1
 c50: tau <= 0.001026694045
 c51: y_a9_proc_0 + y_a9_proc_1 + y_a9_proc_2 + y_a9_proc_3 - tau = 0
 c52: y_a9_proc_0 <= 0
 c53: y_a9_proc_1 <= 0
 c54: y_a9_proc_2 <= 0
 c55: y_a9_proc_3 <= 1
 c56: tau <= 0.001158748552
 c57: y_a10_proc_0 + y_a10_proc_1 + y_a10_proc_2 + y_a10_proc_3 - tau = 0
 c58: y_a10_proc_0 <= 0
 c59: y_a10_proc_1 <= 1
 c60: y_a10_proc_2 <= 0
 c61: y_a10_proc_3 <= 0
 c62: tau <= 0.001131221719
 c63: y_a11_proc_1 + y_a11_proc_2 + y_a11_proc_3 - tau = 0
 c64: y_a11_proc_1 <= 0
 c65: y_a11_proc_2 <= 0
 c66: y_a11_proc_3 <= 1
 c67: tau <= 0.001536098310
 c68: y_a12_proc_0 + y_a12_proc_1 - tau = 0
 c69: y_a12_proc_0 <= 1
 c70: y_a12_proc_1 <= 0
 c71: tau <= 0.001303780965
 c72: y_a13_proc_0 + y_a13_proc_1 + y_a13_proc_2 + y_a13_proc_3 - tau = 0
 c73: y_a13_proc_0 <= 0
 c74: y_a13_proc_1 <= 0
 c75: y_a13_proc_2 <= 1
 c76: y_a13_proc_3 <= 0
 c77: tau <= 0.001529051988
 c78: y_a14_proc_0 + y_a14_proc_1 + y_a14_proc_2 + y_a14_proc_3 - tau = 0
 c79: y_a14_proc_0 <= 0
 c80: y_a14_proc_1 <= 0
 c81: y_a14_proc_2 <= 1
 c82: y_a14_proc_3 <= 0
 c83: u_a0 - u_a1 - 740 y_a1_proc_0 - 1036 y_a1_proc_1 - 715 y_a1_proc_2
      - 1146 y_a1_proc_3 >= 0
 c84: u_a0 - u_a2 - 671 y_a2_proc_0 - 918 y_a2_proc_1 - 933 y_a2_proc_2
      - 974 y_a2_proc_3 >= 0
 c85: u_a2 - u_a3 - 1208 y_a3_proc_1 - 805 y_a3_proc_2 - 892 y_a3_proc_3 >= 0
 c86: u_a4 - u_a3 - 1208 y_a3_proc_1 - 805 y_a3_proc_2 - 892 y_a3_proc_3 >= 0
 c87: u_a1 - u_a5 - 1141 y_a5_proc_0 - 988 y_a5_proc_1 - 1264 y_a5_proc_2
      - 1038 y_a5_proc_3 >= -1
 c88: u_a1 - u_a6 - 995 y_a6_proc_0 - 871 y_a6_proc_1 - 1132 y_a6_proc_2 >= 0
 c89: u_a7 - u_a3 - 1208 y_a3_proc_1 - 805 y_a3_proc_2 - 892 y_a3_proc_3 >= 0
 c90: u_a3 - u_a8 - 862 y_a8_proc_0 - 958 y_a8_proc_1 - 541 y_a8_proc_2 >= -1
 c91: u_a2 - u_a9 - 1011 y_a9_proc_0 - 844 y_a9_proc_1 - 838 y_a9_proc_2
      - 974 y_a9_proc_3 >= -1
 c92: u_a9 - u_a10 - 944 y_a10_proc_0 - 863 y_a10_proc_1 - 608 y_a10_proc_2
      - 588 y_a10_proc_3 >= 0
 c93: u_a3 - u_a11 - 1063 y_a11_proc_1 - 1252 y_a11_proc_2 - 884 y_a11_proc_3
       >= -2
 c94: u_a1 - u_a12 - 651 y_a12_proc_0 - 835 y_a12_proc_1 >= 0
 c95: u_a13 - u_a11 - 1063 y_a11_proc_1 - 1252 y_a11_proc_2 - 884 y_a11_proc_3
       >= 0
 c96: u_a14 - u_a13 - 987 y_a13_proc_0 - 980 y_a13_proc_1 - 767 y_a13_proc_2
      - 777 y_a13_proc_3 >= -1
 c97: u_a9 - u_a0 - 567 y_a0_proc_0 - 601 y_a0_proc_3 >= 0
 c98: u_a8 - u_a13 - 987 y_a13_proc_0 - 980 y_a13_proc_1 - 767 y_a13_proc_2
      - 777 y_a13_proc_3 >= -1
 c99: u_a9 - u_a11 - 1063 y_a11_proc_1 - 1252 y_a11_proc_2 - 884 y_a11_proc_3
       >= 0
 c100: u_a11 - u_a10 - 944 y_a10_proc_0 - 863 y_a10_proc_1 - 608 y_a10_proc_2
       - 588 y_a10_proc_3 >= 0
 c101: u_a14 - u_a7 - 1237 y_a7_proc_0 - 1132 y_a7_proc_1 - 950 y_a7_proc_2
       - 774 y_a7_proc_3 >= 0
 c102: u_a12 - u_a14 - 1194 y_a14_proc_0 - 1251 y_a14_proc_1 - 654 y_a14_proc_2
       - 1184 y_a14_proc_3 >= 0
 c103: u_a0 - u_a6 - 995 y_a6_proc_0 - 871 y_a6_proc_1 - 1132 y_a6_proc_2 >= 0
 c104: u_a5 - u_a0 - 567 y_a0_proc_0 - 601 y_a0_proc_3 >= 0
 c105: u_a10 - u_a14 - 1194 y_a14_proc_0 - 1251 y_a14_proc_1 - 654 y_a14_proc_2
       - 1184 y_a14_proc_3 >= -1
 c106: u_a4 - u_a14 - 1194 y_a14_proc_0 - 1251 y_a14_proc_1 - 654 y_a14_proc_2
       - 1184 y_a14_proc_3 >= -1
 c107: - 944 y_a10_proc_0 - 863 y_a10_proc_1 - 608 y_a10_proc_2
       - 588 y_a10_proc_3 >= -1
 c108: u_a13 - u_a12 - 651 y_a12_proc_0 - 835 y_a12_proc_1 >= 0
 c109: u_a7 - u_a8 - 862 y_a8_proc_0 - 958 y_a8_proc_1 - 541 y_a8_proc_2 >= 0
 c110: u_a10 - u_a4 - 1287 y_a4_proc_0 - 309 y_a4_proc_1 - 1294 y_a4_proc_2
       - 796 y_a4_proc_3 >= -1
 c111: u_a1 - u_a0 - 567 y_a0_proc_0 >= -2607
 c112: u_a1 - u_a0 - 601 y_a0_proc_3 >= -1313
 c113: u_a0 - u_a1 - 740 y_a1_proc_0 >= -2570
 c114: u_a0 - u_a1 - 1146 y_a1_proc_3 >= -1276
 c115: u_a2 - u_a0 - 567 y_a0_proc_0 >= -2607
 c116: u_a2 - u_a0 - 601 y_a0_proc_3 >= -1313
 c117: u_a0 - u_a2 - 671 y_a2_proc_0 >= -2570
 c118: u_a0 - u_a2 - 974 y_a2_proc_3 >= -1276
 c119: u_a3 - u_a0 - 601 y_a0_proc_3 >= -1276
 c120: u_a0 - u_a3 - 892 y_a3_proc_3 >= -1313
 c121: u_a4 - u_a0 - 567 y_a0_proc_0 >= -2607
 c122: u_a4 - u_a0 - 601 y_a0_proc_3 >= -1313
 c123: u_a0 - u_a4 - 1287 y_a4_proc_0 >= -2570
 c124: u_a0 - u_a4 - 796 y_a4_proc_3 >= -1276
 c125: u_a5 - u_a0 - 567 y_a0_proc_0 >= -2588
 c126: u_a5 - u_a0 - 601 y_a0_proc_3 >= 0
 c127: u_a0 - u_a5 - 1141 y_a5_proc_0 >= -2589
 c128: u_a0 - u_a5 - 1038 y_a5_proc_3 >= -1
 c129: u_a6 - u_a0 - 567 y_a0_proc_0 >= -1276
 c130: u_a0 - u_a6 - 995 y_a6_proc_0 >= -1313
 c131: u_a7 - u_a0 - 567 y_a0_proc_0 >= -2570
 c132: u_a7 - u_a0 - 601 y_a0_proc_3 >= -1276
 c133: u_a0 - u_a7 - 1237 y_a7_proc_0 >= -2607
 c134: u_a0 - u_a7 - 774 y_a7_proc_3 >= -1313
 c135: u_a8 - u_a0 - 567 y_a0_proc_0 >= -2570
 c136: u_a0 - u_a8 - 862 y_a8_proc_0 >= -2607
 c137: u_a9 - u_a0 - 567 y_a0_proc_0 >= -2588
 c138: u_a9 - u_a0 - 601 y_a0_proc_3 >= 0
 c139: u_a0 - u_a9 - 1011 y_a9_proc_0 >= -2589
 c140: u_a0 - u_a9 - 974 y_a9_proc_3 >= -1
 c141: u_a10 - u_a0 - 567 y_a0_proc_0 >= -2607
 c142: u_a10 - u_a0 - 601 y_a0_proc_3 >= -1313
 c143: u_a0 - u_a10 - 944 y_a10_proc_0 >= -2570
 c144: u_a0 - u_a10 - 588 y_a10_proc_3 >= -1276
 c145: u_a11 - u_a0 - 601 y_a0_proc_3 >= -19
 c146: u_a0 - u_a11 - 884 y_a11_proc_3 >= 18
 c147: u_a12 - u_a0 - 567 y_a0_proc_0 >= -1313
 c148: u_a0 - u_a12 - 651 y_a12_proc_0 >= -1276
 c149: u_a13 - u_a0 - 567 y_a0_proc_0 >= -2607
 c150: u_a13 - u_a0 - 601 y_a0_proc_3 >= -1313
 c151: u_a0 - u_a13 - 987 y_a13_proc_0 >= -2570
 c152: u_a0 - u_a13 - 777 y_a13_proc_3 >= -1276
 c153: u_a14 - u_a0 - 567 y_a0_proc_0 >= -2607
 c154: u_a14 - u_a0 - 601 y_a0_proc_3 >= -1313
 c155: u_a0 - u_a14 - 1194 y_a14_proc_0 >= -2570
 c156: u_a0 - u_a14 - 1184 y_a14_proc_3 >= -1276
 c157: u_a2 - u_a1 - 740 y_a1_proc_0 >= -2570
 c158: u_a2 - u_a1 - 715 y_a1_proc_2 >= -1276
 c159: u_a2 - u_a1 - 1036 y_a1_proc_1 >= -1276
 c160: u_a2 - u_a1 - 1146 y_a1_proc_3 >= -2570
 c161: u_a1 - u_a2 - 671 y_a2_proc_0 >= -2607
 c162: u_a1 - u_a2 - 933 y_a2_proc_2 >= -1313
 c163: u_a1 - u_a2 - 918 y_a2_proc_1 >= -1313
 c164: u_a1 - u_a2 - 974 y_a2_proc_3 >= -2607
 c165: u_a3 - u_a1 - 715 y_a1_proc_2 >= -1313
 c166: u_a3 - u_a1 - 1036 y_a1_proc_1 >= -1313
 c167: u_a3 - u_a1 - 1146 y_a1_proc_3 >= -2607
 c168: u_a1 - u_a3 - 805 y_a3_proc_2 >= -1276
 c169: u_a1 - u_a3 - 1208 y_a3_proc_1 >= -1276
 c170: u_a1 - u_a3 - 892 y_a3_proc_3 >= -2570
 c171: u_a4 - u_a1 - 740 y_a1_proc_0 >= -2607
 c172: u_a4 - u_a1 - 715 y_a1_proc_2 >= -1313
 c173: u_a4 - u_a1 - 1036 y_a1_proc_1 >= -1313
 c174: u_a4 - u_a1 - 1146 y_a1_proc_3 >= -2607
 c175: u_a1 - u_a4 - 1287 y_a4_proc_0 >= -2570
 c176: u_a1 - u_a4 - 1294 y_a4_proc_2 >= -1276
 c177: u_a1 - u_a4 - 309 y_a4_proc_1 >= -1276
 c178: u_a1 - u_a4 - 796 y_a4_proc_3 >= -2570
 c179: u_a5 - u_a1 - 740 y_a1_proc_0 >= -2607
 c180: u_a5 - u_a1 - 715 y_a1_proc_2 >= -1313
 c181: u_a5 - u_a1 - 1036 y_a1_proc_1 >= -2607
 c182: u_a5 - u_a1 - 1146 y_a1_proc_3 >= -1313
 c183: u_a1 - u_a5 - 1141 y_a5_proc_0 >= -2570
 c184: u_a1 - u_a5 - 1264 y_a5_proc_2 >= -1276
 c185: u_a1 - u_a5 - 988 y_a5_proc_1 >= -2570
 c186: u_a1 - u_a5 - 1038 y_a5_proc_3 >= -1276
 c187: u_a6 - u_a1 - 740 y_a1_proc_0 >= -1276
 c188: u_a6 - u_a1 - 715 y_a1_proc_2 >= -1276
 c189: u_a6 - u_a1 - 1036 y_a1_proc_1 >= -2570
 c190: u_a1 - u_a6 - 995 y_a6_proc_0 >= -1313
 c191: u_a1 - u_a6 - 1132 y_a6_proc_2 >= -1313
 c192: u_a1 - u_a6 - 871 y_a6_proc_1 >= -2607
 c193: u_a7 - u_a1 - 740 y_a1_proc_0 >= -2607
 c194: u_a7 - u_a1 - 715 y_a1_proc_2 >= -19
 c195: u_a7 - u_a1 - 1036 y_a1_proc_1 >= -2607
 c196: u_a7 - u_a1 - 1146 y_a1_proc_3 >= -2607
 c197: u_a1 - u_a7 - 1237 y_a7_proc_0 >= -2570
 c198: u_a1 - u_a7 - 950 y_a7_proc_2 >= 18
 c199: u_a1 - u_a7 - 1132 y_a7_proc_1 >= -2570
 c200: u_a1 - u_a7 - 774 y_a7_proc_3 >= -2570
 c201: u_a8 - u_a1 - 740 y_a1_proc_0 >= -2607
 c202: u_a8 - u_a1 - 715 y_a1_proc_2 >= -19
 c203: u_a8 - u_a1 - 1036 y_a1_proc_1 >= -2607
 c204: u_a1 - u_a8 - 862 y_a8_proc_0 >= -2570
 c205: u_a1 - u_a8 - 541 y_a8_proc_2 >= 18
 c206: u_a1 - u_a8 - 958 y_a8_proc_1 >= -2570
 c207: u_a9 - u_a1 - 740 y_a1_proc_0 >= -2570
 c208: u_a9 - u_a1 - 715 y_a1_proc_2 >= -1276
 c209: u_a9 - u_a1 - 1036 y_a1_proc_1 >= -2570
 c210: u_a9 - u_a1 - 1146 y_a1_proc_3 >= -1276
 c211: u_a1 - u_a9 - 1011 y_a9_proc_0 >= -2607
 c212: u_a1 - u_a9 - 838 y_a9_proc_2 >= -1313
 c213: u_a1 - u_a9 - 844 y_a9_proc_1 >= -2607
 c214: u_a1 - u_a9 - 974 y_a9_proc_3 >= -1313
 c215: u_a10 - u_a1 - 740 y_a1_proc_0 >= -2570
 c216: u_a10 - u_a1 - 715 y_a1_proc_2 >= -1276
 c217: u_a10 - u_a1 - 1036 y_a1_proc_1 >= -1276
 c218: u_a10 - u_a1 - 1146 y_a1_proc_3 >= -2570
 c219: u_a1 - u_a10 - 944 y_a10_proc_0 >= -2607
 c220: u_a1 - u_a10 - 608 y_a10_proc_2 >= -1313
 c221: u_a1 - u_a10 - 863 y_a10_proc_1 >= -1313
 c222: u_a1 - u_a10 - 588 y_a10_proc_3 >= -2607
 c223: u_a11 - u_a1 - 715 y_a1_proc_2 >= -1313
 c224: u_a11 - u_a1 - 1036 y_a1_proc_1 >= -2607
 c225: u_a11 - u_a1 - 1146 y_a1_proc_3 >= -1313
 c226: u_a1 - u_a11 - 1252 y_a11_proc_2 >= -1276
 c227: u_a1 - u_a11 - 1063 y_a11_proc_1 >= -2570
 c228: u_a1 - u_a11 - 884 y_a11_proc_3 >= -1276
 c229: u_a12 - u_a1 - 740 y_a1_proc_0 >= -1313
 c230: u_a12 - u_a1 - 1036 y_a1_proc_1 >= -2607
 c231: u_a1 - u_a12 - 651 y_a12_proc_0 >= -1276
 c232: u_a1 - u_a12 - 835 y_a12_proc_1 >= -2570
 c233: u_a13 - u_a1 - 740 y_a1_proc_0 >= -2606
 c234: u_a13 - u_a1 - 715 y_a1_proc_2 >= -18
 c235: u_a13 - u_a1 - 1036 y_a1_proc_1 >= -2606
 c236: u_a13 - u_a1 - 1146 y_a1_proc_3 >= -2606
 c237: u_a1 - u_a13 - 987 y_a13_proc_0 >= -2571
 c238: u_a1 - u_a13 - 767 y_a13_proc_2 >= 17
 c239: u_a1 - u_a13 - 980 y_a13_proc_1 >= -2571
 c240: u_a1 - u_a13 - 777 y_a13_proc_3 >= -2571
 c241: u_a14 - u_a1 - 740 y_a1_proc_0 >= -2607
 c242: u_a14 - u_a1 - 715 y_a1_proc_2 >= -19
 c243: u_a14 - u_a1 - 1036 y_a1_proc_1 >= -2607
 c244: u_a14 - u_a1 - 1146 y_a1_proc_3 >= -2607
 c245: u_a1 - u_a14 - 1194 y_a14_proc_0 >= -2570
 c246: u_a1 - u_a14 - 654 y_a14_proc_2 >= 18
 c247: u_a1 - u_a14 - 1251 y_a14_proc_1 >= -2570
 c248: u_a1 - u_a14 - 1184 y_a14_proc_3 >= -2570
 c249: u_a3 - u_a2 - 933 y_a2_proc_2 >= -2607
 c250: u_a3 - u_a2 - 918 y_a2_proc_1 >= -19
 c251: u_a3 - u_a2 - 974 y_a2_proc_3 >= -2607
 c252: u_a2 - u_a3 - 805 y_a3_proc_2 >= -2570
 c253: u_a2 - u_a3 - 1208 y_a3_proc_1 >= 18
 c254: u_a2 - u_a3 - 892 y_a3_proc_3 >= -2570
 c255: u_a4 - u_a2 - 671 y_a2_proc_0 >= -2606
 c256: u_a4 - u_a2 - 933 y_a2_proc_2 >= -2606
 c257: u_a4 - u_a2 - 918 y_a2_proc_1 >= -18
 c258: u_a4 - u_a2 - 974 y_a2_proc_3 >= -2606
 c259: u_a2 - u_a4 - 1287 y_a4_proc_0 >= -2571
 c260: u_a2 - u_a4 - 1294 y_a4_proc_2 >= -2571
 c261: u_a2 - u_a4 - 309 y_a4_proc_1 >= 17
 c262: u_a2 - u_a4 - 796 y_a4_proc_3 >= -2571
 c263: u_a5 - u_a2 - 671 y_a2_proc_0 >= -2570
 c264: u_a5 - u_a2 - 933 y_a2_proc_2 >= -2570
 c265: u_a5 - u_a2 - 918 y_a2_proc_1 >= -1276
 c266: u_a5 - u_a2 - 974 y_a2_proc_3 >= -1276
 c267: u_a2 - u_a5 - 1141 y_a5_proc_0 >= -2607
 c268: u_a2 - u_a5 - 1264 y_a5_proc_2 >= -2607
 c269: u_a2 - u_a5 - 988 y_a5_proc_1 >= -1313
 c270: u_a2 - u_a5 - 1038 y_a5_proc_3 >= -1313
 c271: u_a6 - u_a2 - 671 y_a2_proc_0 >= -1313
 c272: u_a6 - u_a2 - 933 y_a2_proc_2 >= -2607
 c273: u_a6 - u_a2 - 918 y_a2_proc_1 >= -1313
 c274: u_a2 - u_a6 - 995 y_a6_proc_0 >= -1276
 c275: u_a2 - u_a6 - 1132 y_a6_proc_2 >= -2570
 c276: u_a2 - u_a6 - 871 y_a6_proc_1 >= -1276
 c277: u_a7 - u_a2 - 671 y_a2_proc_0 >= -2570
 c278: u_a7 - u_a2 - 933 y_a2_proc_2 >= -1276
 c279: u_a7 - u_a2 - 918 y_a2_proc_1 >= -1276
 c280: u_a7 - u_a2 - 974 y_a2_proc_3 >= -2570
 c281: u_a2 - u_a7 - 1237 y_a7_proc_0 >= -2607
 c282: u_a2 - u_a7 - 950 y_a7_proc_2 >= -1313
 c283: u_a2 - u_a7 - 1132 y_a7_proc_1 >= -1313
 c284: u_a2 - u_a7 - 774 y_a7_proc_3 >= -2607
 c285: u_a8 - u_a2 - 671 y_a2_proc_0 >= -2607
 c286: u_a8 - u_a2 - 933 y_a2_proc_2 >= -1313
 c287: u_a8 - u_a2 - 918 y_a2_proc_1 >= -1313
 c288: u_a2 - u_a8 - 862 y_a8_proc_0 >= -2570
 c289: u_a2 - u_a8 - 541 y_a8_proc_2 >= -1276
 c290: u_a2 - u_a8 - 958 y_a8_proc_1 >= -1276
 c291: u_a9 - u_a2 - 671 y_a2_proc_0 >= -2607
 c292: u_a9 - u_a2 - 933 y_a2_proc_2 >= -2607
 c293: u_a9 - u_a2 - 918 y_a2_proc_1 >= -1313
 c294: u_a9 - u_a2 - 974 y_a2_proc_3 >= -1313
 c295: u_a2 - u_a9 - 1011 y_a9_proc_0 >= -2570
 c296: u_a2 - u_a9 - 838 y_a9_proc_2 >= -2570
 c297: u_a2 - u_a9 - 844 y_a9_proc_1 >= -1276
 c298: u_a2 - u_a9 - 974 y_a9_proc_3 >= -1276
 c299: u_a10 - u_a2 - 671 y_a2_proc_0 >= -2607
 c300: u_a10 - u_a2 - 933 y_a2_proc_2 >= -2607
 c301: u_a10 - u_a2 - 918 y_a2_proc_1 >= -19
 c302: u_a10 - u_a2 - 974 y_a2_proc_3 >= -2607
 c303: u_a2 - u_a10 - 944 y_a10_proc_0 >= -2570
 c304: u_a2 - u_a10 - 608 y_a10_proc_2 >= -2570
 c305: u_a2 - u_a10 - 863 y_a10_proc_1 >= 18
 c306: u_a2 - u_a10 - 588 y_a10_proc_3 >= -2570
 c307: u_a11 - u_a2 - 933 y_a2_proc_2 >= -2570
 c308: u_a11 - u_a2 - 918 y_a2_proc_1 >= -1276
 c309: u_a11 - u_a2 - 974 y_a2_proc_3 >= -1276
 c310: u_a2 - u_a11 - 1252 y_a11_proc_2 >= -2607
 c311: u_a2 - u_a11 - 1063 y_a11_proc_1 >= -1313
 c312: u_a2 - u_a11 - 884 y_a11_proc_3 >= -1313
 c313: u_a12 - u_a2 - 671 y_a2_proc_0 >= -1276
 c314: u_a12 - u_a2 - 918 y_a2_proc_1 >= -1276
 c315: u_a2 - u_a12 - 651 y_a12_proc_0 >= -1313
 c316: u_a2 - u_a12 - 835 y_a12_proc_1 >= -1313
 c317: u_a13 - u_a2 - 671 y_a2_proc_0 >= -2607
 c318: u_a13 - u_a2 - 933 y_a2_proc_2 >= -1313
 c319: u_a13 - u_a2 - 918 y_a2_proc_1 >= -1313
 c320: u_a13 - u_a2 - 974 y_a2_proc_3 >= -2607
 c321: u_a2 - u_a13 - 987 y_a13_proc_0 >= -2570
 c322: u_a2 - u_a13 - 767 y_a13_proc_2 >= -1276
 c323: u_a2 - u_a13 - 980 y_a13_proc_1 >= -1276
 c324: u_a2 - u_a13 - 777 y_a13_proc_3 >= -2570
 c325: u_a14 - u_a2 - 671 y_a2_proc_0 >= -2570
 c326: u_a14 - u_a2 - 933 y_a2_proc_2 >= -1276
 c327: u_a14 - u_a2 - 918 y_a2_proc_1 >= -1276
 c328: u_a14 - u_a2 - 974 y_a2_proc_3 >= -2570
 c329: u_a2 - u_a14 - 1194 y_a14_proc_0 >= -2607
 c330: u_a2 - u_a14 - 654 y_a14_proc_2 >= -1313
 c331: u_a2 - u_a14 - 1251 y_a14_proc_1 >= -1313
 c332: u_a2 - u_a14 - 1184 y_a14_proc_3 >= -2607
 c333: u_a4 - u_a3 - 805 y_a3_proc_2 >= -2588
 c334: u_a4 - u_a3 - 1208 y_a3_proc_1 >= 0
 c335: u_a4 - u_a3 - 892 y_a3_proc_3 >= -2588
 c336: u_a3 - u_a4 - 1294 y_a4_proc_2 >= -2589
 c337: u_a3 - u_a4 - 309 y_a4_proc_1 >= -1
 c338: u_a3 - u_a4 - 796 y_a4_proc_3 >= -2589
 c339: u_a5 - u_a3 - 805 y_a3_proc_2 >= -2570
 c340: u_a5 - u_a3 - 1208 y_a3_proc_1 >= -1276
 c341: u_a5 - u_a3 - 892 y_a3_proc_3 >= -1276
 c342: u_a3 - u_a5 - 1264 y_a5_proc_2 >= -2607
 c343: u_a3 - u_a5 - 988 y_a5_proc_1 >= -1313
 c344: u_a3 - u_a5 - 1038 y_a5_proc_3 >= -1313
 c345: u_a6 - u_a3 - 805 y_a3_proc_2 >= -2607
 c346: u_a6 - u_a3 - 1208 y_a3_proc_1 >= -1313
 c347: u_a3 - u_a6 - 1132 y_a6_proc_2 >= -2570
 c348: u_a3 - u_a6 - 871 y_a6_proc_1 >= -1276
 c349: u_a7 - u_a3 - 805 y_a3_proc_2 >= -1276
 c350: u_a7 - u_a3 - 1208 y_a3_proc_1 >= -1276
 c351: u_a7 - u_a3 - 892 y_a3_proc_3 >= -2570
 c352: u_a3 - u_a7 - 950 y_a7_proc_2 >= -1313
 c353: u_a3 - u_a7 - 1132 y_a7_proc_1 >= -1313
 c354: u_a3 - u_a7 - 774 y_a7_proc_3 >= -2607
 c355: u_a8 - u_a3 - 805 y_a3_proc_2 >= -1313
 c356: u_a8 - u_a3 - 1208 y_a3_proc_1 >= -1313
 c357: u_a3 - u_a8 - 541 y_a8_proc_2 >= -1276
 c358: u_a3 - u_a8 - 958 y_a8_proc_1 >= -1276
 c359: u_a9 - u_a3 - 805 y_a3_proc_2 >= -2570
 c360: u_a9 - u_a3 - 1208 y_a3_proc_1 >= -1276
 c361: u_a9 - u_a3 - 892 y_a3_proc_3 >= -1276
 c362: u_a3 - u_a9 - 838 y_a9_proc_2 >= -2607
 c363: u_a3 - u_a9 - 844 y_a9_proc_1 >= -1313
 c364: u_a3 - u_a9 - 974 y_a9_proc_3 >= -1313
 c365: u_a10 - u_a3 - 805 y_a3_proc_2 >= -2589
 c366: u_a10 - u_a3 - 1208 y_a3_proc_1 >= -1
 c367: u_a10 - u_a3 - 892 y_a3_proc_3 >= -2589
 c368: u_a3 - u_a10 - 608 y_a10_proc_2 >= -2588
 c369: u_a3 - u_a10 - 863 y_a10_proc_1 >= 0
 c370: u_a3 - u_a10 - 588 y_a10_proc_3 >= -2588
 c371: u_a11 - u_a3 - 805 y_a3_proc_2 >= -2570
 c372: u_a11 - u_a3 - 1208 y_a3_proc_1 >= -1276
 c373: u_a11 - u_a3 - 892 y_a3_proc_3 >= -1276
 c374: u_a3 - u_a11 - 1252 y_a11_proc_2 >= -2607
 c375: u_a3 - u_a11 - 1063 y_a11_proc_1 >= -1313
 c376: u_a3 - u_a11 - 884 y_a11_proc_3 >= -1313
 c377: u_a12 - u_a3 - 1208 y_a3_proc_1 >= -1313
 c378: u_a3 - u_a12 - 835 y_a12_proc_1 >= -1276
 c379: u_a13 - u_a3 - 805 y_a3_proc_2 >= -1276
 c380: u_a13 - u_a3 - 1208 y_a3_proc_1 >= -1276
 c381: u_a13 - u_a3 - 892 y_a3_proc_3 >= -2570
 c382: u_a3 - u_a13 - 767 y_a13_proc_2 >= -1313
 c383: u_a3 - u_a13 - 980 y_a13_proc_1 >= -1313
 c384: u_a3 - u_a13 - 777 y_a13_proc_3 >= -2607
 c385: u_a14 - u_a3 - 805 y_a3_proc_2 >= -1313
 c386: u_a14 - u_a3 - 1208 y_a3_proc_1 >= -1313
 c387: u_a14 - u_a3 - 892 y_a3_proc_3 >= -2607
 c388: u_a3 - u_a14 - 654 y_a14_proc_2 >= -1276
 c389: u_a3 - u_a14 - 1251 y_a14_proc_1 >= -1276
 c390: u_a3 - u_a14 - 1184 y_a14_proc_3 >= -2570
 c391: u_a5 - u_a4 - 1287 y_a4_proc_0 >= -2607
 c392: u_a5 - u_a4 - 1294 y_a4_proc_2 >= -2607
 c393: u_a5 - u_a4 - 309 y_a4_proc_1 >= -1313
 c394: u_a5 - u_a4 - 796 y_a4_proc_3 >= -1313
 c395: u_a4 - u_a5 - 1141 y_a5_proc_0 >= -2570
 c396: u_a4 - u_a5 - 1264 y_a5_proc_2 >= -2570
 c397: u_a4 - u_a5 - 988 y_a5_proc_1 >= -1276
 c398: u_a4 - u_a5 - 1038 y_a5_proc_3 >= -1276
 c399: u_a6 - u_a4 - 1287 y_a4_proc_0 >= -1276
 c400: u_a6 - u_a4 - 1294 y_a4_proc_2 >= -2570
 c401: u_a6 - u_a4 - 309 y_a4_proc_1 >= -1276
 c402: u_a4 - u_a6 - 995 y_a6_proc_0 >= -1313
 c403: u_a4 - u_a6 - 1132 y_a6_proc_2 >= -2607
 c404: u_a4 - u_a6 - 871 y_a6_proc_1 >= -1313
 c405: u_a7 - u_a4 - 1287 y_a4_proc_0 >= -2607
 c406: u_a7 - u_a4 - 1294 y_a4_proc_2 >= -1313
 c407: u_a7 - u_a4 - 309 y_a4_proc_1 >= -1313
 c408: u_a7 - u_a4 - 796 y_a4_proc_3 >= -2607
 c409: u_a4 - u_a7 - 1237 y_a7_proc_0 >= -2570
 c410: u_a4 - u_a7 - 950 y_a7_proc_2 >= -1276
 c411: u_a4 - u_a7 - 1132 y_a7_proc_1 >= -1276
 c412: u_a4 - u_a7 - 774 y_a7_proc_3 >= -2570
 c413: u_a8 - u_a4 - 1287 y_a4_proc_0 >= -2570
 c414: u_a8 - u_a4 - 1294 y_a4_proc_2 >= -1276
 c415: u_a8 - u_a4 - 309 y_a4_proc_1 >= -1276
 c416: u_a4 - u_a8 - 862 y_a8_proc_0 >= -2607
 c417: u_a4 - u_a8 - 541 y_a8_proc_2 >= -1313
 c418: u_a4 - u_a8 - 958 y_a8_proc_1 >= -1313
 c419: u_a9 - u_a4 - 1287 y_a4_proc_0 >= -2570
 c420: u_a9 - u_a4 - 1294 y_a4_proc_2 >= -2570
 c421: u_a9 - u_a4 - 309 y_a4_proc_1 >= -1276
 c422: u_a9 - u_a4 - 796 y_a4_proc_3 >= -1276
 c423: u_a4 - u_a9 - 1011 y_a9_proc_0 >= -2607
 c424: u_a4 - u_a9 - 838 y_a9_proc_2 >= -2607
 c425: u_a4 - u_a9 - 844 y_a9_proc_1 >= -1313
 c426: u_a4 - u_a9 - 974 y_a9_proc_3 >= -1313
 c427: u_a10 - u_a4 - 1287 y_a4_proc_0 >= -2589
 c428: u_a10 - u_a4 - 1294 y_a4_proc_2 >= -2589
 c429: u_a10 - u_a4 - 309 y_a4_proc_1 >= -1
 c430: u_a10 - u_a4 - 796 y_a4_proc_3 >= -2589
 c431: u_a4 - u_a10 - 944 y_a10_proc_0 >= -2588
 c432: u_a4 - u_a10 - 608 y_a10_proc_2 >= -2588
 c433: u_a4 - u_a10 - 863 y_a10_proc_1 >= 0
 c434: u_a4 - u_a10 - 588 y_a10_proc_3 >= -2588
 c435: u_a11 - u_a4 - 1294 y_a4_proc_2 >= -2570
 c436: u_a11 - u_a4 - 309 y_a4_proc_1 >= -1276
 c437: u_a11 - u_a4 - 796 y_a4_proc_3 >= -1276
 c438: u_a4 - u_a11 - 1252 y_a11_proc_2 >= -2607
 c439: u_a4 - u_a11 - 1063 y_a11_proc_1 >= -1313
 c440: u_a4 - u_a11 - 884 y_a11_proc_3 >= -1313
 c441: u_a12 - u_a4 - 1287 y_a4_proc_0 >= -1313
 c442: u_a12 - u_a4 - 309 y_a4_proc_1 >= -1313
 c443: u_a4 - u_a12 - 651 y_a12_proc_0 >= -1276
 c444: u_a4 - u_a12 - 835 y_a12_proc_1 >= -1276
 c445: u_a13 - u_a4 - 1287 y_a4_proc_0 >= -2607
 c446: u_a13 - u_a4 - 1294 y_a4_proc_2 >= -1313
 c447: u_a13 - u_a4 - 309 y_a4_proc_1 >= -1313
 c448: u_a13 - u_a4 - 796 y_a4_proc_3 >= -2607
 c449: u_a4 - u_a13 - 987 y_a13_proc_0 >= -2570
 c450: u_a4 - u_a13 - 767 y_a13_proc_2 >= -1276
 c451: u_a4 - u_a13 - 980 y_a13_proc_1 >= -1276
 c452: u_a4 - u_a13 - 777 y_a13_proc_3 >= -2570
 c453: u_a14 - u_a4 - 1287 y_a4_proc_0 >= -2570
 c454: u_a14 - u_a4 - 1294 y_a4_proc_2 >= -1276
 c455: u_a14 - u_a4 - 309 y_a4_proc_1 >= -1276
 c456: u_a14 - u_a4 - 796 y_a4_proc_3 >= -2570
 c457: u_a4 - u_a14 - 1194 y_a14_proc_0 >= -2607
 c458: u_a4 - u_a14 - 654 y_a14_proc_2 >= -1313
 c459: u_a4 - u_a14 - 1251 y_a14_proc_1 >= -1313
 c460: u_a4 - u_a14 - 1184 y_a14_proc_3 >= -2607
 c461: u_a6 - u_a5 - 1141 y_a5_proc_0 >= -1276
 c462: u_a6 - u_a5 - 1264 y_a5_proc_2 >= -2570
 c463: u_a6 - u_a5 - 988 y_a5_proc_1 >= -2570
 c464: u_a5 - u_a6 - 995 y_a6_proc_0 >= -1313
 c465: u_a5 - u_a6 - 1132 y_a6_proc_2 >= -2607
 c466: u_a5 - u_a6 - 871 y_a6_proc_1 >= -2607
 c467: u_a7 - u_a5 - 1141 y_a5_proc_0 >= -2607
 c468: u_a7 - u_a5 - 1264 y_a5_proc_2 >= -1313
 c469: u_a7 - u_a5 - 988 y_a5_proc_1 >= -2607
 c470: u_a7 - u_a5 - 1038 y_a5_proc_3 >= -1313
 c471: u_a5 - u_a7 - 1237 y_a7_proc_0 >= -2570
 c472: u_a5 - u_a7 - 950 y_a7_proc_2 >= -1276
 c473: u_a5 - u_a7 - 1132 y_a7_proc_1 >= -2570
 c474: u_a5 - u_a7 - 774 y_a7_proc_3 >= -1276
 c475: u_a8 - u_a5 - 1141 y_a5_proc_0 >= -2607
 c476: u_a8 - u_a5 - 1264 y_a5_proc_2 >= -1313
 c477: u_a8 - u_a5 - 988 y_a5_proc_1 >= -2607
 c478: u_a5 - u_a8 - 862 y_a8_proc_0 >= -2570
 c479: u_a5 - u_a8 - 541 y_a8_proc_2 >= -1276
 c480: u_a5 - u_a8 - 958 y_a8_proc_1 >= -2570
 c481: u_a9 - u_a5 - 1141 y_a5_proc_0 >= -2589
 c482: u_a9 - u_a5 - 1264 y_a5_proc_2 >= -2589
 c483: u_a9 - u_a5 - 988 y_a5_proc_1 >= -2589
 c484: u_a9 - u_a5 - 1038 y_a5_proc_3 >= -1
 c485: u_a5 - u_a9 - 1011 y_a9_proc_0 >= -2588
 c486: u_a5 - u_a9 - 838 y_a9_proc_2 >= -2588
 c487: u_a5 - u_a9 - 844 y_a9_proc_1 >= -2588
 c488: u_a5 - u_a9 - 974 y_a9_proc_3 >= 0
 c489: u_a10 - u_a5 - 1141 y_a5_proc_0 >= -2570
 c490: u_a10 - u_a5 - 1264 y_a5_proc_2 >= -2570
 c491: u_a10 - u_a5 - 988 y_a5_proc_1 >= -1276
 c492: u_a10 - u_a5 - 1038 y_a5_proc_3 >= -1276
 c493: u_a5 - u_a10 - 944 y_a10_proc_0 >= -2607
 c494: u_a5 - u_a10 - 608 y_a10_proc_2 >= -2607
 c495: u_a5 - u_a10 - 863 y_a10_proc_1 >= -1313
 c496: u_a5 - u_a10 - 588 y_a10_proc_3 >= -1313
 c497: u_a11 - u_a5 - 1264 y_a5_proc_2 >= -2607
 c498: u_a11 - u_a5 - 988 y_a5_proc_1 >= -2607
 c499: u_a11 - u_a5 - 1038 y_a5_proc_3 >= -19
 c500: u_a5 - u_a11 - 1252 y_a11_proc_2 >= -2570
 c501: u_a5 - u_a11 - 1063 y_a11_proc_1 >= -2570
 c502: u_a5 - u_a11 - 884 y_a11_proc_3 >= 18
 c503: u_a12 - u_a5 - 1141 y_a5_proc_0 >= -1313
 c504: u_a12 - u_a5 - 988 y_a5_proc_1 >= -2607
 c505: u_a5 - u_a12 - 651 y_a12_proc_0 >= -1276
 c506: u_a5 - u_a12 - 835 y_a12_proc_1 >= -2570
 c507: u_a13 - u_a5 - 1141 y_a5_proc_0 >= -2607
 c508: u_a13 - u_a5 - 1264 y_a5_proc_2 >= -1313
 c509: u_a13 - u_a5 - 988 y_a5_proc_1 >= -2607
 c510: u_a13 - u_a5 - 1038 y_a5_proc_3 >= -1313
 c511: u_a5 - u_a13 - 987 y_a13_proc_0 >= -2570
 c512: u_a5 - u_a13 - 767 y_a13_proc_2 >= -1276
 c513: u_a5 - u_a13 - 980 y_a13_proc_1 >= -2570
 c514: u_a5 - u_a13 - 777 y_a13_proc_3 >= -1276
 c515: u_a14 - u_a5 - 1141 y_a5_proc_0 >= -2607
 c516: u_a14 - u_a5 - 1264 y_a5_proc_2 >= -1313
 c517: u_a14 - u_a5 - 988 y_a5_proc_1 >= -2607
 c518: u_a14 - u_a5 - 1038 y_a5_proc_3 >= -1313
 c519: u_a5 - u_a14 - 1194 y_a14_proc_0 >= -2570
 c520: u_a5 - u_a14 - 654 y_a14_proc_2 >= -1276
 c521: u_a5 - u_a14 - 1251 y_a14_proc_1 >= -2570
 c522: u_a5 - u_a14 - 1184 y_a14_proc_3 >= -1276
 c523: u_a7 - u_a6 - 995 y_a6_proc_0 >= -1276
 c524: u_a7 - u_a6 - 1132 y_a6_proc_2 >= -1276
 c525: u_a7 - u_a6 - 871 y_a6_proc_1 >= -2570
 c526: u_a6 - u_a7 - 1237 y_a7_proc_0 >= -1313
 c527: u_a6 - u_a7 - 950 y_a7_proc_2 >= -1313
 c528: u_a6 - u_a7 - 1132 y_a7_proc_1 >= -2607
 c529: u_a8 - u_a6 - 995 y_a6_proc_0 >= -1313
 c530: u_a8 - u_a6 - 1132 y_a6_proc_2 >= -1313
 c531: u_a8 - u_a6 - 871 y_a6_proc_1 >= -2607
 c532: u_a6 - u_a8 - 862 y_a8_proc_0 >= -1276
 c533: u_a6 - u_a8 - 541 y_a8_proc_2 >= -1276
 c534: u_a6 - u_a8 - 958 y_a8_proc_1 >= -2570
 c535: u_a9 - u_a6 - 995 y_a6_proc_0 >= -1276
 c536: u_a9 - u_a6 - 1132 y_a6_proc_2 >= -2570
 c537: u_a9 - u_a6 - 871 y_a6_proc_1 >= -2570
 c538: u_a6 - u_a9 - 1011 y_a9_proc_0 >= -1313
 c539: u_a6 - u_a9 - 838 y_a9_proc_2 >= -2607
 c540: u_a6 - u_a9 - 844 y_a9_proc_1 >= -2607
 c541: u_a10 - u_a6 - 995 y_a6_proc_0 >= -1276
 c542: u_a10 - u_a6 - 1132 y_a6_proc_2 >= -2570
 c543: u_a10 - u_a6 - 871 y_a6_proc_1 >= -1276
 c544: u_a6 - u_a10 - 944 y_a10_proc_0 >= -1313
 c545: u_a6 - u_a10 - 608 y_a10_proc_2 >= -2607
 c546: u_a6 - u_a10 - 863 y_a10_proc_1 >= -1313
 c547: u_a11 - u_a6 - 1132 y_a6_proc_2 >= -2607
 c548: u_a11 - u_a6 - 871 y_a6_proc_1 >= -2607
 c549: u_a6 - u_a11 - 1252 y_a11_proc_2 >= -2570
 c550: u_a6 - u_a11 - 1063 y_a11_proc_1 >= -2570
 c551: u_a12 - u_a6 - 995 y_a6_proc_0 >= 0
 c552: u_a12 - u_a6 - 871 y_a6_proc_1 >= -2588
 c553: u_a6 - u_a12 - 651 y_a12_proc_0 >= -1
 c554: u_a6 - u_a12 - 835 y_a12_proc_1 >= -2589
 c555: u_a13 - u_a6 - 995 y_a6_proc_0 >= -1313
 c556: u_a13 - u_a6 - 1132 y_a6_proc_2 >= -1313
 c557: u_a13 - u_a6 - 871 y_a6_proc_1 >= -2607
 c558: u_a6 - u_a13 - 987 y_a13_proc_0 >= -1276
 c559: u_a6 - u_a13 - 767 y_a13_proc_2 >= -1276
 c560: u_a6 - u_a13 - 980 y_a13_proc_1 >= -2570
 c561: u_a14 - u_a6 - 995 y_a6_proc_0 >= -1276
 c562: u_a14 - u_a6 - 1132 y_a6_proc_2 >= -1276
 c563: u_a14 - u_a6 - 871 y_a6_proc_1 >= -2570
 c564: u_a6 - u_a14 - 1194 y_a14_proc_0 >= -1313
 c565: u_a6 - u_a14 - 654 y_a14_proc_2 >= -1313
 c566: u_a6 - u_a14 - 1251 y_a14_proc_1 >= -2607
 c567: u_a8 - u_a7 - 1237 y_a7_proc_0 >= -2589
 c568: u_a8 - u_a7 - 950 y_a7_proc_2 >= -1
 c569: u_a8 - u_a7 - 1132 y_a7_proc_1 >= -2589
 c570: u_a7 - u_a8 - 862 y_a8_proc_0 >= -2588
 c571: u_a7 - u_a8 - 541 y_a8_proc_2 >= 0
 c572: u_a7 - u_a8 - 958 y_a8_proc_1 >= -2588
 c573: u_a9 - u_a7 - 1237 y_a7_proc_0 >= -2607
 c574: u_a9 - u_a7 - 950 y_a7_proc_2 >= -1313
 c575: u_a9 - u_a7 - 1132 y_a7_proc_1 >= -2607
 c576: u_a9 - u_a7 - 774 y_a7_proc_3 >= -1313
 c577: u_a7 - u_a9 - 1011 y_a9_proc_0 >= -2570
 c578: u_a7 - u_a9 - 838 y_a9_proc_2 >= -1276
 c579: u_a7 - u_a9 - 844 y_a9_proc_1 >= -2570
 c580: u_a7 - u_a9 - 974 y_a9_proc_3 >= -1276
 c581: u_a10 - u_a7 - 1237 y_a7_proc_0 >= -2570
 c582: u_a10 - u_a7 - 950 y_a7_proc_2 >= -1276
 c583: u_a10 - u_a7 - 1132 y_a7_proc_1 >= -1276
 c584: u_a10 - u_a7 - 774 y_a7_proc_3 >= -2570
 c585: u_a7 - u_a10 - 944 y_a10_proc_0 >= -2607
 c586: u_a7 - u_a10 - 608 y_a10_proc_2 >= -1313
 c587: u_a7 - u_a10 - 863 y_a10_proc_1 >= -1313
 c588: u_a7 - u_a10 - 588 y_a10_proc_3 >= -2607
 c589: u_a11 - u_a7 - 950 y_a7_proc_2 >= -1276
 c590: u_a11 - u_a7 - 1132 y_a7_proc_1 >= -2570
 c591: u_a11 - u_a7 - 774 y_a7_proc_3 >= -1276
 c592: u_a7 - u_a11 - 1252 y_a11_proc_2 >= -1313
 c593: u_a7 - u_a11 - 1063 y_a11_proc_1 >= -2607
 c594: u_a7 - u_a11 - 884 y_a11_proc_3 >= -1313
 c595: u_a12 - u_a7 - 1237 y_a7_proc_0 >= -1313
 c596: u_a12 - u_a7 - 1132 y_a7_proc_1 >= -2607
 c597: u_a7 - u_a12 - 651 y_a12_proc_0 >= -1276
 c598: u_a7 - u_a12 - 835 y_a12_proc_1 >= -2570
 c599: u_a13 - u_a7 - 1237 y_a7_proc_0 >= -2588
 c600: u_a13 - u_a7 - 950 y_a7_proc_2 >= 0
 c601: u_a13 - u_a7 - 1132 y_a7_proc_1 >= -2588
 c602: u_a13 - u_a7 - 774 y_a7_proc_3 >= -2588
 c603: u_a7 - u_a13 - 987 y_a13_proc_0 >= -2589
 c604: u_a7 - u_a13 - 767 y_a13_proc_2 >= -1
 c605: u_a7 - u_a13 - 980 y_a13_proc_1 >= -2589
 c606: u_a7 - u_a13 - 777 y_a13_proc_3 >= -2589
 c607: u_a14 - u_a7 - 1237 y_a7_proc_0 >= -2588
 c608: u_a14 - u_a7 - 950 y_a7_proc_2 >= 0
 c609: u_a14 - u_a7 - 1132 y_a7_proc_1 >= -2588
 c610: u_a14 - u_a7 - 774 y_a7_proc_3 >= -2588
 c611: u_a7 - u_a14 - 1194 y_a14_proc_0 >= -2589
 c612: u_a7 - u_a14 - 654 y_a14_proc_2 >= -1
 c613: u_a7 - u_a14 - 1251 y_a14_proc_1 >= -2589
 c614: u_a7 - u_a14 - 1184 y_a14_proc_3 >= -2589
 c615: u_a9 - u_a8 - 862 y_a8_proc_0 >= -2570
 c616: u_a9 - u_a8 - 541 y_a8_proc_2 >= -1276
 c617: u_a9 - u_a8 - 958 y_a8_proc_1 >= -2570
 c618: u_a8 - u_a9 - 1011 y_a9_proc_0 >= -2607
 c619: u_a8 - u_a9 - 838 y_a9_proc_2 >= -1313
 c620: u_a8 - u_a9 - 844 y_a9_proc_1 >= -2607
 c621: u_a10 - u_a8 - 862 y_a8_proc_0 >= -2607
 c622: u_a10 - u_a8 - 541 y_a8_proc_2 >= -1313
 c623: u_a10 - u_a8 - 958 y_a8_proc_1 >= -1313
 c624: u_a8 - u_a10 - 944 y_a10_proc_0 >= -2570
 c625: u_a8 - u_a10 - 608 y_a10_proc_2 >= -1276
 c626: u_a8 - u_a10 - 863 y_a10_proc_1 >= -1276
 c627: u_a11 - u_a8 - 541 y_a8_proc_2 >= -1313
 c628: u_a11 - u_a8 - 958 y_a8_proc_1 >= -2607
 c629: u_a8 - u_a11 - 1252 y_a11_proc_2 >= -1276
 c630: u_a8 - u_a11 - 1063 y_a11_proc_1 >= -2570
 c631: u_a12 - u_a8 - 862 y_a8_proc_0 >= -1313
 c632: u_a12 - u_a8 - 958 y_a8_proc_1 >= -2607
 c633: u_a8 - u_a12 - 651 y_a12_proc_0 >= -1276
 c634: u_a8 - u_a12 - 835 y_a12_proc_1 >= -2570
 c635: u_a13 - u_a8 - 862 y_a8_proc_0 >= -2588
 c636: u_a13 - u_a8 - 541 y_a8_proc_2 >= 0
 c637: u_a13 - u_a8 - 958 y_a8_proc_1 >= -2588
 c638: u_a8 - u_a13 - 987 y_a13_proc_0 >= -2589
 c639: u_a8 - u_a13 - 767 y_a13_proc_2 >= -1
 c640: u_a8 - u_a13 - 980 y_a13_proc_1 >= -2589
 c641: u_a14 - u_a8 - 862 y_a8_proc_0 >= -2588
 c642: u_a14 - u_a8 - 541 y_a8_proc_2 >= 0
 c643: u_a14 - u_a8 - 958 y_a8_proc_1 >= -2588
 c644: u_a8 - u_a14 - 1194 y_a14_proc_0 >= -2589
 c645: u_a8 - u_a14 - 654 y_a14_proc_2 >= -1
 c646: u_a8 - u_a14 - 1251 y_a14_proc_1 >= -2589
 c647: u_a10 - u_a9 - 1011 y_a9_proc_0 >= -2570
 c648: u_a10 - u_a9 - 838 y_a9_proc_2 >= -2570
 c649: u_a10 - u_a9 - 844 y_a9_proc_1 >= -1276
 c650: u_a10 - u_a9 - 974 y_a9_proc_3 >= -1276
 c651: u_a9 - u_a10 - 944 y_a10_proc_0 >= -2607
 c652: u_a9 - u_a10 - 608 y_a10_proc_2 >= -2607
 c653: u_a9 - u_a10 - 863 y_a10_proc_1 >= -1313
 c654: u_a9 - u_a10 - 588 y_a10_proc_3 >= -1313
 c655: u_a11 - u_a9 - 838 y_a9_proc_2 >= -2607
 c656: u_a11 - u_a9 - 844 y_a9_proc_1 >= -2607
 c657: u_a11 - u_a9 - 974 y_a9_proc_3 >= -19
 c658: u_a9 - u_a11 - 1252 y_a11_proc_2 >= -2570
 c659: u_a9 - u_a11 - 1063 y_a11_proc_1 >= -2570
 c660: u_a9 - u_a11 - 884 y_a11_proc_3 >= 18
 c661: u_a12 - u_a9 - 1011 y_a9_proc_0 >= -1313
 c662: u_a12 - u_a9 - 844 y_a9_proc_1 >= -2607
 c663: u_a9 - u_a12 - 651 y_a12_proc_0 >= -1276
 c664: u_a9 - u_a12 - 835 y_a12_proc_1 >= -2570
 c665: u_a13 - u_a9 - 1011 y_a9_proc_0 >= -2607
 c666: u_a13 - u_a9 - 838 y_a9_proc_2 >= -1313
 c667: u_a13 - u_a9 - 844 y_a9_proc_1 >= -2607
 c668: u_a13 - u_a9 - 974 y_a9_proc_3 >= -1313
 c669: u_a9 - u_a13 - 987 y_a13_proc_0 >= -2570
 c670: u_a9 - u_a13 - 767 y_a13_proc_2 >= -1276
 c671: u_a9 - u_a13 - 980 y_a13_proc_1 >= -2570
 c672: u_a9 - u_a13 - 777 y_a13_proc_3 >= -1276
 c673: u_a14 - u_a9 - 1011 y_a9_proc_0 >= -2607
 c674: u_a14 - u_a9 - 838 y_a9_proc_2 >= -1313
 c675: u_a14 - u_a9 - 844 y_a9_proc_1 >= -2607
 c676: u_a14 - u_a9 - 974 y_a9_proc_3 >= -1313
 c677: u_a9 - u_a14 - 1194 y_a14_proc_0 >= -2570
 c678: u_a9 - u_a14 - 654 y_a14_proc_2 >= -1276
 c679: u_a9 - u_a14 - 1251 y_a14_proc_1 >= -2570
 c680: u_a9 - u_a14 - 1184 y_a14_proc_3 >= -1276
 c681: u_a11 - u_a10 - 608 y_a10_proc_2 >= -2607
 c682: u_a11 - u_a10 - 863 y_a10_proc_1 >= -1313
 c683: u_a11 - u_a10 - 588 y_a10_proc_3 >= -1313
 c684: u_a10 - u_a11 - 1252 y_a11_proc_2 >= -2570
 c685: u_a10 - u_a11 - 1063 y_a11_proc_1 >= -1276
 c686: u_a10 - u_a11 - 884 y_a11_proc_3 >= -1276
 c687: u_a12 - u_a10 - 944 y_a10_proc_0 >= -1276
 c688: u_a12 - u_a10 - 863 y_a10_proc_1 >= -1276
 c689: u_a10 - u_a12 - 651 y_a12_proc_0 >= -1313
 c690: u_a10 - u_a12 - 835 y_a12_proc_1 >= -1313
 c691: u_a13 - u_a10 - 944 y_a10_proc_0 >= -2607
 c692: u_a13 - u_a10 - 608 y_a10_proc_2 >= -1313
 c693: u_a13 - u_a10 - 863 y_a10_proc_1 >= -1313
 c694: u_a13 - u_a10 - 588 y_a10_proc_3 >= -2607
 c695: u_a10 - u_a13 - 987 y_a13_proc_0 >= -2570
 c696: u_a10 - u_a13 - 767 y_a13_proc_2 >= -1276
 c697: u_a10 - u_a13 - 980 y_a13_proc_1 >= -1276
 c698: u_a10 - u_a13 - 777 y_a13_proc_3 >= -2570
 c699: u_a14 - u_a10 - 944 y_a10_proc_0 >= -2607
 c700: u_a14 - u_a10 - 608 y_a10_proc_2 >= -1313
 c701: u_a14 - u_a10 - 863 y_a10_proc_1 >= -1313
 c702: u_a14 - u_a10 - 588 y_a10_proc_3 >= -2607
 c703: u_a10 - u_a14 - 1194 y_a14_proc_0 >= -2570
 c704: u_a10 - u_a14 - 654 y_a14_proc_2 >= -1276
 c705: u_a10 - u_a14 - 1251 y_a14_proc_1 >= -1276
 c706: u_a10 - u_a14 - 1184 y_a14_proc_3 >= -2570
 c707: u_a12 - u_a11 - 1063 y_a11_proc_1 >= -2607
 c708: u_a11 - u_a12 - 835 y_a12_proc_1 >= -2570
 c709: u_a13 - u_a11 - 1252 y_a11_proc_2 >= -1276
 c710: u_a13 - u_a11 - 1063 y_a11_proc_1 >= -2570
 c711: u_a13 - u_a11 - 884 y_a11_proc_3 >= -1276
 c712: u_a11 - u_a13 - 767 y_a13_proc_2 >= -1313
 c713: u_a11 - u_a13 - 980 y_a13_proc_1 >= -2607
 c714: u_a11 - u_a13 - 777 y_a13_proc_3 >= -1313
 c715: u_a14 - u_a11 - 1252 y_a11_proc_2 >= -1313
 c716: u_a14 - u_a11 - 1063 y_a11_proc_1 >= -2607
 c717: u_a14 - u_a11 - 884 y_a11_proc_3 >= -1313
 c718: u_a11 - u_a14 - 654 y_a14_proc_2 >= -1276
 c719: u_a11 - u_a14 - 1251 y_a14_proc_1 >= -2570
 c720: u_a11 - u_a14 - 1184 y_a14_proc_3 >= -1276
 c721: u_a13 - u_a12 - 651 y_a12_proc_0 >= -1276
 c722: u_a13 - u_a12 - 835 y_a12_proc_1 >= -2570
 c723: u_a12 - u_a13 - 987 y_a13_proc_0 >= -1313
 c724: u_a12 - u_a13 - 980 y_a13_proc_1 >= -2607
 c725: u_a14 - u_a12 - 651 y_a12_proc_0 >= -1313
 c726: u_a14 - u_a12 - 835 y_a12_proc_1 >= -2607
 c727: u_a12 - u_a14 - 1194 y_a14_proc_0 >= -1276
 c728: u_a12 - u_a14 - 1251 y_a14_proc_1 >= -2570
 c729: u_a14 - u_a13 - 987 y_a13_proc_0 >= -2589
 c730: u_a14 - u_a13 - 767 y_a13_proc_2 >= -1
 c731: u_a14 - u_a13 - 980 y_a13_proc_1 >= -2589
 c732: u_a14 - u_a13 - 777 y_a13_proc_3 >= -2589
 c733: u_a13 - u_a14 - 1194 y_a14_proc_0 >= -2588
 c734: u_a13 - u_a14 - 654 y_a14_proc_2 >= 0
 c735: u_a13 - u_a14 - 1251 y_a14_proc_1 >= -2588
 c736: u_a13 - u_a14 - 1184 y_a14_proc_3 >= -2588

Bounds
End
